70 1235
1 4
1 9
1 11
1 16
1 17
1 20
1 24
1 25
1 26
1 28
1 29
1 30
1 31
1 33
1 34
1 35
1 38
1 40
1 43
1 44
1 46
1 47
1 48
1 52
1 53
1 56
1 63
1 65
1 67
2 3
2 8
2 10
2 13
2 14
2 15
2 16
2 17
2 18
2 19
2 21
2 22
2 24
2 26
2 27
2 29
2 33
2 36
2 38
2 39
2 41
2 44
2 45
2 47
2 49
2 53
2 54
2 55
2 56
2 62
2 64
2 66
2 67
2 69
2 70
3 4
3 5
3 10
3 11
3 12
3 14
3 17
3 18
3 19
3 20
3 24
3 25
3 26
3 28
3 30
3 31
3 32
3 34
3 38
3 42
3 43
3 45
3 46
3 47
3 48
3 50
3 51
3 52
3 55
3 56
3 57
3 58
3 59
3 60
3 62
3 64
3 65
3 68
3 69
4 6
4 7
4 13
4 15
4 20
4 25
4 26
4 28
4 29
4 30
4 31
4 33
4 35
4 36
4 37
4 38
4 39
4 42
4 43
4 46
4 47
4 48
4 49
4 51
4 57
4 58
4 59
4 60
4 65
4 66
4 67
4 70
5 6
5 7
5 9
5 10
5 11
5 16
5 17
5 18
5 22
5 26
5 28
5 32
5 33
5 35
5 37
5 43
5 46
5 48
5 49
5 50
5 51
5 55
5 56
5 57
5 60
5 61
5 64
5 67
6 7
6 10
6 16
6 22
6 27
6 28
6 29
6 31
6 34
6 36
6 37
6 38
6 40
6 41
6 43
6 46
6 50
6 54
6 55
6 56
6 57
6 60
6 61
6 66
6 67
6 68
7 8
7 9
7 10
7 12
7 13
7 15
7 16
7 17
7 29
7 30
7 31
7 32
7 33
7 34
7 40
7 45
7 46
7 47
7 48
7 49
7 52
7 53
7 54
7 56
7 57
7 59
7 61
7 62
7 64
7 65
7 66
7 69
7 70
8 12
8 15
8 19
8 20
8 25
8 27
8 28
8 29
8 31
8 33
8 34
8 35
8 40
8 41
8 42
8 43
8 44
8 46
8 49
8 53
8 55
8 56
8 58
8 59
8 61
8 62
8 63
8 66
8 69
8 70
9 10
9 13
9 14
9 17
9 19
9 20
9 21
9 22
9 25
9 26
9 27
9 29
9 31
9 32
9 34
9 35
9 36
9 38
9 39
9 40
9 44
9 48
9 49
9 51
9 53
9 55
9 56
9 59
9 61
9 62
9 63
9 64
9 65
9 68
9 70
10 11
10 12
10 13
10 15
10 22
10 23
10 26
10 32
10 38
10 39
10 40
10 41
10 42
10 43
10 45
10 46
10 48
10 49
10 51
10 52
10 55
10 56
10 63
10 64
10 67
10 70
11 12
11 14
11 15
11 17
11 18
11 20
11 21
11 23
11 26
11 27
11 29
11 32
11 33
11 35
11 38
11 39
11 41
11 42
11 47
11 48
11 52
11 54
11 55
11 57
11 58
11 59
11 60
11 62
11 66
11 68
11 69
11 70
12 13
12 17
12 18
12 19
12 21
12 23
12 24
12 27
12 28
12 29
12 30
12 32
12 34
12 35
12 37
12 38
12 39
12 42
12 48
12 49
12 50
12 52
12 53
12 54
12 57
12 58
12 60
12 61
12 62
12 64
12 65
12 67
12 68
12 70
13 14
13 18
13 21
13 24
13 27
13 28
13 29
13 31
13 34
13 35
13 36
13 40
13 42
13 43
13 44
13 46
13 50
13 54
13 55
13 62
13 66
13 67
13 68
13 69
13 70
14 19
14 22
14 30
14 32
14 33
14 36
14 37
14 38
14 40
14 43
14 44
14 45
14 47
14 49
14 51
14 53
14 54
14 56
14 58
14 59
14 60
14 61
14 63
14 64
14 65
14 66
14 67
14 68
14 70
15 20
15 21
15 22
15 26
15 27
15 29
15 30
15 32
15 36
15 37
15 39
15 42
15 45
15 46
15 50
15 52
15 53
15 54
15 56
15 58
15 62
15 63
15 64
15 65
15 66
15 67
15 68
16 19
16 20
16 22
16 23
16 30
16 33
16 34
16 39
16 44
16 46
16 50
16 51
16 53
16 54
16 55
16 56
16 58
16 59
16 62
16 64
16 65
16 66
16 67
16 68
16 69
16 70
17 18
17 21
17 23
17 26
17 27
17 30
17 31
17 34
17 38
17 41
17 42
17 45
17 46
17 48
17 49
17 52
17 53
17 54
17 55
17 57
17 58
17 60
17 62
17 64
17 67
17 69
18 19
18 21
18 22
18 26
18 27
18 31
18 32
18 33
18 35
18 37
18 39
18 41
18 42
18 45
18 47
18 48
18 49
18 51
18 52
18 60
18 61
18 62
18 63
18 67
18 68
19 20
19 23
19 24
19 25
19 26
19 27
19 31
19 36
19 40
19 44
19 45
19 46
19 47
19 50
19 51
19 54
19 55
19 60
19 61
19 70
20 21
20 24
20 26
20 29
20 32
20 35
20 37
20 39
20 42
20 46
20 48
20 49
20 51
20 53
20 54
20 56
20 59
20 60
20 62
20 64
20 65
20 67
20 70
21 24
21 29
21 30
21 33
21 34
21 41
21 42
21 43
21 44
21 46
21 47
21 50
21 51
21 52
21 53
21 54
21 56
21 57
21 58
21 62
21 63
21 64
21 66
21 67
22 25
22 28
22 29
22 30
22 31
22 32
22 33
22 34
22 35
22 42
22 44
22 45
22 46
22 48
22 49
22 50
22 51
22 53
22 56
22 57
22 60
22 62
22 63
22 64
22 65
22 69
23 24
23 26
23 28
23 30
23 32
23 34
23 35
23 38
23 39
23 41
23 44
23 45
23 46
23 47
23 48
23 49
23 50
23 56
23 58
23 59
23 60
23 61
23 65
23 69
23 70
24 25
24 27
24 28
24 29
24 30
24 34
24 35
24 38
24 39
24 40
24 42
24 44
24 46
24 48
24 51
24 52
24 53
24 54
24 55
24 56
24 58
24 59
24 61
24 63
24 64
24 66
24 67
24 68
25 26
25 27
25 29
25 34
25 35
25 38
25 39
25 40
25 41
25 43
25 44
25 45
25 46
25 49
25 50
25 51
25 53
25 55
25 56
25 57
25 58
25 60
25 61
25 64
25 66
25 68
25 69
25 70
26 27
26 28
26 29
26 30
26 31
26 32
26 33
26 34
26 39
26 40
26 42
26 45
26 47
26 48
26 49
26 51
26 52
26 53
26 54
26 55
26 56
26 62
26 67
26 69
26 70
27 29
27 30
27 31
27 33
27 34
27 35
27 41
27 42
27 44
27 45
27 48
27 50
27 52
27 53
27 54
27 56
27 58
27 60
27 61
27 62
27 66
27 67
27 69
27 70
28 29
28 31
28 32
28 33
28 35
28 39
28 40
28 41
28 46
28 53
28 54
28 56
28 57
28 59
28 60
28 61
28 62
28 64
28 65
28 66
28 67
28 68
28 69
28 70
29 31
29 39
29 41
29 43
29 48
29 50
29 51
29 54
29 57
29 58
29 59
29 62
29 63
29 65
29 66
29 67
29 69
30 35
30 38
30 39
30 40
30 43
30 45
30 46
30 47
30 48
30 50
30 51
30 52
30 53
30 56
30 58
30 59
30 62
30 63
30 66
30 67
30 68
30 69
31 33
31 34
31 38
31 49
31 50
31 52
31 53
31 56
31 57
31 58
31 59
31 62
31 64
31 66
31 67
32 33
32 35
32 36
32 38
32 39
32 41
32 43
32 44
32 45
32 47
32 48
32 50
32 51
32 52
32 53
32 55
32 56
32 57
32 58
32 63
32 64
32 65
32 67
32 68
32 70
33 35
33 36
33 37
33 38
33 39
33 40
33 45
33 46
33 51
33 53
33 54
33 61
33 62
33 63
33 66
33 67
33 68
34 36
34 37
34 38
34 40
34 41
34 42
34 46
34 48
34 50
34 53
34 54
34 56
34 57
34 58
34 60
34 61
34 62
34 63
34 64
34 65
34 67
34 68
34 69
34 70
35 36
35 37
35 40
35 41
35 42
35 45
35 46
35 48
35 49
35 50
35 51
35 53
35 58
35 60
35 64
35 65
35 66
35 69
36 37
36 38
36 42
36 44
36 50
36 51
36 53
36 56
36 57
36 58
36 59
36 62
36 63
36 65
36 67
36 70
37 38
37 41
37 43
37 44
37 45
37 47
37 49
37 50
37 51
37 53
37 55
37 56
37 57
37 58
37 61
37 62
37 63
37 69
38 41
38 42
38 43
38 45
38 49
38 51
38 52
38 55
38 58
38 59
38 60
38 61
38 62
38 63
38 66
38 68
38 69
38 70
39 40
39 43
39 44
39 45
39 48
39 49
39 52
39 53
39 56
39 62
39 63
39 67
39 68
39 70
40 43
40 45
40 48
40 50
40 52
40 53
40 55
40 56
40 60
40 61
40 62
40 63
40 65
40 67
40 68
41 42
41 45
41 46
41 52
41 53
41 54
41 56
41 60
41 61
41 62
41 66
41 68
42 43
42 44
42 45
42 48
42 50
42 54
42 57
42 58
42 59
42 60
42 61
42 62
42 63
42 64
42 65
42 66
42 67
42 69
42 70
43 45
43 47
43 48
43 50
43 56
43 59
43 60
43 61
43 64
43 66
43 67
43 68
44 46
44 47
44 48
44 49
44 50
44 51
44 59
44 61
44 62
44 66
44 67
44 68
44 69
45 46
45 47
45 48
45 49
45 51
45 53
45 54
45 56
45 58
45 59
45 60
45 61
45 64
45 65
45 66
45 68
45 69
45 70
46 47
46 48
46 49
46 51
46 52
46 54
46 56
46 60
46 61
46 66
46 68
46 69
46 70
47 49
47 50
47 51
47 52
47 53
47 54
47 55
47 56
47 62
47 63
47 64
47 67
47 69
47 70
48 51
48 54
48 55
48 56
48 61
48 62
48 67
48 69
48 70
49 50
49 52
49 53
49 56
49 58
49 59
49 62
49 63
49 65
49 66
49 67
49 69
50 51
50 53
50 54
50 55
50 60
50 61
50 62
50 64
50 65
50 67
50 68
50 69
50 70
51 53
51 54
51 55
51 56
51 57
51 58
51 59
51 60
51 61
51 63
51 66
51 67
51 68
51 70
52 53
52 55
52 56
52 58
52 60
52 61
52 63
52 64
52 66
52 67
52 68
53 54
53 60
53 62
53 63
53 65
53 68
53 69
54 55
54 56
54 59
54 64
54 65
54 66
54 67
54 68
54 69
54 70
55 60
55 62
55 64
55 66
55 68
55 70
56 59
56 61
56 65
56 68
57 59
57 65
58 61
58 64
58 65
58 66
58 67
58 68
58 69
59 61
59 63
59 65
59 66
59 67
59 69
59 70
60 61
60 62
60 63
60 64
60 65
60 68
60 70
61 62
61 63
61 66
61 67
61 68
61 70
62 65
62 66
63 65
63 66
63 68
64 69
64 70
65 66
65 67
65 69
65 70
66 67
66 69
67 70
68 70
69 70
